(define-fun min ((x Real) (y Real)) Real
  (ite (< x y) x y))
(define-fun max ((x Real) (y Real)) Real
  (ite (< x y) y x))
	(declare-fun p2141 () Real)
	(declare-fun p2139 () Real)
	(declare-fun p2140 () Real)
	(declare-fun p2220 () Real)
	(declare-fun p2221 () Real)
	(declare-fun p2352 () Real)
	(declare-fun p2353 () Real)
	(declare-fun p2137 () Real)
	(declare-fun p2138 () Real)
	(assert (<= 0 p2141 ))
	(assert (<= p2141 1 ))
	(assert (<= 0 p2139 ))
	(assert (<= p2139 1 ))
	(assert (<= 0 p2140 ))
	(assert (<= p2140 1 ))
	(assert (<= 0 p2220 ))
	(assert (<= p2220 1 ))
	(assert (<= 0 p2221 ))
	(assert (<= p2221 1 ))
	(assert (<= 0 p2352 ))
	(assert (<= p2352 1 ))
	(assert (<= 0 p2353 ))
	(assert (<= p2353 1 ))
	(assert (<= 0 p2137 ))
	(assert (<= p2137 1 ))
	(assert (<= 0 p2138 ))
	(assert (<= p2138 1 ))
	(assert (<= p2141 (+ (* p2141 p2139) (* (- 1 p2141) p2140))))
	(assert (<= p2141 1))
	(assert (<= p2139 (+ (* (/  1 2) p2220) (* (- 1 (/  1 2)) p2221))))
	(assert (<= p2220 1))
	(assert (<= p2221 1))
	(assert (<= p2139 1))
	(assert (<= p2140 (+ (* (/  1 2) p2352) (* (- 1 (/  1 2)) p2353))))
	(assert (<= p2352 1))
	(assert (<= p2353 1))
	(assert (<= p2140 1))
	(assert (<= (-  1 (/  1 1024)) (+ (* p2141 p2137) (* (- 1 p2141) p2138))))
	(assert (= p2137 0))
	(assert (<= p2138 1))
	(check-sat)